
Gurobi 7.5.2 (linux64) logging started Sat Jul  7 17:30:45 2018

Changed value of parameter LogFile to result/ilp/simNo_9-n_100-m_40-s_4-minVAF_0.05-cov_10000-k_1-fn_0.25-fp_0.0001-na_0.15.ILP.gurobiSolverLog
   Prev: gurobi.log  Default: 
Changed value of parameter TimeLimit to 86400.0
   Prev: 1e+100  Min: 0.0  Max: 1e+100  Default: 1e+100
Optimize a model with 639293 rows, 10765 columns and 1940420 nonzeros
Variable types: 0 continuous, 10765 integer (10765 binary)
Coefficient statistics:
  Matrix range     [3e-05, 4e+00]
  Objective range  [1e+00, 2e+01]
  Bounds range     [1e+00, 1e+00]
  RHS range        [3e-01, 2e+00]
Found heuristic solution: objective -11934.16296
Presolve removed 132851 rows and 1024 columns (presolve time = 5s) ...
Presolve removed 133430 rows and 1024 columns (presolve time = 13s) ...
Presolve removed 191330 rows and 1603 columns (presolve time = 15s) ...
Presolve removed 191330 rows and 1603 columns (presolve time = 20s) ...
Presolve removed 191330 rows and 1603 columns
Presolve time: 20.01s
Presolved: 447963 rows, 9162 columns, 1348114 nonzeros
Variable types: 0 continuous, 9162 integer (9162 binary)
Presolved: 9162 rows, 457125 columns, 1357276 nonzeros

Presolve removed 9162 rows and 457125 columns

Root simplex log...

Iteration    Objective       Primal Inf.    Dual Inf.      Time
       0    2.2383647e+01   0.000000e+00   6.072200e+04     24s
   13655   -2.0257457e+02   0.000000e+00   1.707651e+05     25s
   32421   -2.7097796e+02   0.000000e+00   1.044070e+05     30s
   49014   -3.0377552e+02   0.000000e+00   8.297241e+05     35s
   62884   -3.2950117e+02   0.000000e+00   1.181850e+04     40s
   67695   -3.3031585e+02   0.000000e+00   0.000000e+00     43s
   67695   -3.3031585e+02   0.000000e+00   0.000000e+00     44s

Root relaxation: objective -3.303158e+02, 67695 iterations, 22.38 seconds
Total elapsed time = 106.52s
Total elapsed time = 186.20s

    Nodes    |    Current Node    |     Objective Bounds      |     Work
 Expl Unexpl |  Obj  Depth IntInf | Incumbent    BestBd   Gap | It/Node Time

     0     0 -330.31585    0  661 -11934.163 -330.31585  97.2%     -  206s
H    0     0                    -429.7101012 -330.31585  23.1%     -  208s
H    0     0                    -368.3042279 -330.31585  10.3%     -  225s
     0     0 -332.39740    0  661 -368.30423 -332.39740  9.75%     -  274s
     0     0 -333.48051    0  928 -368.30423 -333.48051  9.46%     -  581s
     0     0 -333.95857    0  652 -368.30423 -333.95857  9.33%     - 2060s
     0     0 -333.95857    0  653 -368.30423 -333.95857  9.33%     - 2076s
     0     0 -334.47896    0  662 -368.30423 -334.47896  9.18%     - 2089s
     0     0 -334.47896    0  660 -368.30423 -334.47896  9.18%     - 2127s
     0     0 -335.02843    0  670 -368.30423 -335.02843  9.03%     - 2502s
     0     0 -335.03641    0  958 -368.30423 -335.03641  9.03%     - 2737s
     0     0 -335.03641    0  960 -368.30423 -335.03641  9.03%     - 2740s
     0     0 -335.55680    0 1012 -368.30423 -335.55680  8.89%     - 10671s
     0     0 -335.55680    0 1013 -368.30423 -335.55680  8.89%     - 10693s
     0     0 -336.16219    0 1039 -368.30423 -336.16219  8.73%     - 16023s
     0     0 -336.16560    0 1048 -368.30423 -336.16560  8.73%     - 16087s
     0     0 -336.16560    0 1070 -368.30423 -336.16560  8.73%     - 16123s
     0     0 -337.44722    0  690 -368.30423 -337.44722  8.38%     - 36469s
     0     0 -337.60129    0  677 -368.30423 -337.60129  8.34%     - 37605s
     0     0 -337.60129    0  689 -368.30423 -337.60129  8.34%     - 37608s
     0     0 -337.97293    0 1016 -368.30423 -337.97293  8.24%     - 40486s
     0     0 -338.36832    0  982 -368.30423 -338.36832  8.13%     - 44944s
     0     0 -338.50402    0  688 -368.30423 -338.50402  8.09%     - 46447s
     0     0 -338.53573    0  683 -368.30423 -338.53573  8.08%     - 48135s
     0     0 -338.53573    0  698 -368.30423 -338.53573  8.08%     - 48141s
     0     0 -339.83812    0 1009 -368.30423 -339.83812  7.73%     - 59131s
     0     0 -339.91313    0 1016 -368.30423 -339.91313  7.71%     - 59174s
     0     0 -339.93043    0 1017 -368.30423 -339.93043  7.70%     - 59263s
     0     0 -339.93253    0 1017 -368.30423 -339.93253  7.70%     - 59488s
     0     0 -339.93253    0 1017 -368.30423 -339.93253  7.70%     - 59491s
     0     0 -340.69714    0 1018 -368.30423 -340.69714  7.50%     - 63908s
     0     0 -340.73397    0 1121 -368.30423 -340.73397  7.49%     - 64626s
     0     0 -340.75018    0 1118 -368.30423 -340.75018  7.48%     - 64697s
     0     0 -340.75915    0 1118 -368.30423 -340.75915  7.48%     - 65989s
     0     0 -341.18243    0  647 -368.30423 -341.18243  7.36%     - 82848s
H    0     0                    -367.2634504 -341.18243  7.10%     - 82860s
     0     0 -341.18484    0  981 -367.26345 -341.18484  7.10%     - 84834s
     0     0 -341.18484    0  982 -367.26345 -341.18484  7.10%     - 84842s
     0     0 -341.18484    0  992 -367.26345 -341.18484  7.10%     - 84851s
     0     0 -341.18484    0  985 -367.26345 -341.18484  7.10%     - 84866s
     0     0 -341.21443    0  938 -367.26345 -341.21443  7.09%     - 85915s
     0     0 -341.30754    0  951 -367.26345 -341.30754  7.07%     - 86117s
     0     0 -341.30754    0  952 -367.26345 -341.30754  7.07%     - 86120s
     0     0          -    0      -367.26345 -341.30754  7.07%     - 86400s

Cutting planes:
  Gomory: 3
  MIR: 14
  StrongCG: 1
  Zero half: 143

Explored 1 nodes (2562408 simplex iterations) in 86400.14 seconds
Thread count was 1 (of 80 available processors)

Solution count 4: -367.263 -368.304 -429.71 -11934.2 

Time limit reached
Best objective -3.672634503879e+02, best bound -3.413075433232e+02, gap 7.0674%
